problems/csplib-prob015/SchursLemma-models/noch/O2/lingeling/model_1_3-6-14-solution000001.solution
language Essence 1.3

letting boxes be partition({1, 3, 11}, {2, 7}, {4, 9, 12, 14}, {5, 8, 10}, {6}, {13})
